runtime_files/mcpf.tsp
NAME : mcpfd
COMMENT : file for mcpfd test
TYPE : ATSP
DIMENSION : 30
EDGE_WEIGHT_TYPE : EXPLICIT
EDGE_WEIGHT_FORMAT : FULL_MATRIX
EDGE_WEIGHT_SECTION
1999999 1999999 1999999 1999999 1999999 5969 1999999 1999999 1999999 1999999 1999999 1999999 1999999 1999999 5928 5962 1999999 1999999 1999999 1999999 1999999 1999999 1999999 1999999 5945 5956 1999999 1999999 1999999 1999999 
1999999 1999999 1999999 1999999 1999999 1999999 5964 5951 1999999 1999999 1999999 1999999 1999999 1999999 1999999 1999999 5963 5944 1999999 1999999 1999999 1999999 1999999 1999999 1999999 1999999 5962 1999999 1999999 1999999 
1999999 1999999 1999999 1999999 1999999 1999999 1999999 1999999 5959 5961 1999999 1999999 1999999 1999999 1999999 1999999 1999999 1999999 5954 5946 1999999 1999999 1999999 1999999 1999999 1999999 1999999 5961 1999999 1999999 
1999999 1999999 1999999 1999999 1999999 1999999 1999999 1999999 1999999 1999999 5957 5937 1999999 1999999 1999999 1999999 1999999 1999999 1999999 1999999 5962 5952 1999999 1999999 1999999 1999999 1999999 1999999 5954 1999999 
1999999 1999999 1999999 1999999 1999999 1999999 1999999 1999999 1999999 1999999 1999999 1999999 5945 5977 1999999 1999999 1999999 1999999 1999999 1999999 1999999 1999999 5958 5964 1999999 1999999 1999999 1999999 1999999 5949 
1999999 1999999 1999999 1999999 1999999 1999999 0 5943 1999999 1999999 1999999 1999999 1999999 1999999 1999999 1999999 5955 5948 1999999 1999999 1999999 1999999 1999999 1999999 1999999 1999999 5956 1999999 1999999 1999999 
1999999 1999999 1999999 1999999 1999999 0 1999999 1999999 1999999 1999999 1999999 1999999 1999999 1999999 5967 5955 1999999 1999999 1999999 1999999 1999999 1999999 1999999 1999999 5952 5953 1999999 1999999 1999999 1999999 
1999999 1999999 1999999 1999999 1999999 1999999 1999999 1999999 0 5950 1999999 1999999 1999999 1999999 1999999 1999999 1999999 1999999 5949 5951 1999999 1999999 1999999 1999999 1999999 1999999 1999999 5960 1999999 1999999 
1999999 1999999 1999999 1999999 1999999 1999999 5943 0 1999999 1999999 1999999 1999999 1999999 1999999 1999999 1999999 5942 5949 1999999 1999999 1999999 1999999 1999999 1999999 1999999 1999999 5943 1999999 1999999 1999999 
1999999 1999999 1999999 1999999 1999999 1999999 1999999 1999999 1999999 1999999 0 5952 1999999 1999999 1999999 1999999 1999999 1999999 1999999 1999999 5973 5931 1999999 1999999 1999999 1999999 1999999 1999999 5927 1999999 
1999999 1999999 1999999 1999999 1999999 1999999 1999999 1999999 5950 0 1999999 1999999 1999999 1999999 1999999 1999999 1999999 1999999 5973 5973 1999999 1999999 1999999 1999999 1999999 1999999 1999999 5984 1999999 1999999 
1999999 1999999 1999999 1999999 1999999 1999999 1999999 1999999 1999999 1999999 1999999 1999999 0 5960 1999999 1999999 1999999 1999999 1999999 1999999 1999999 1999999 5947 5953 1999999 1999999 1999999 1999999 1999999 5940 
1999999 1999999 1999999 1999999 1999999 1999999 1999999 1999999 1999999 1999999 5952 0 1999999 1999999 1999999 1999999 1999999 1999999 1999999 1999999 5957 5947 1999999 1999999 1999999 1999999 1999999 1999999 5949 1999999 
1999999 1999999 1999999 1999999 1999999 5967 1999999 1999999 1999999 1999999 1999999 1999999 1999999 1999999 0 5964 1999999 1999999 1999999 1999999 1999999 1999999 1999999 1999999 5943 5958 1999999 1999999 1999999 1999999 
1999999 1999999 1999999 1999999 1999999 1999999 1999999 1999999 1999999 1999999 1999999 1999999 5960 0 1999999 1999999 1999999 1999999 1999999 1999999 1999999 1999999 5963 5943 1999999 1999999 1999999 1999999 1999999 5962 
1999999 1999999 1999999 1999999 1999999 1999999 5955 5942 1999999 1999999 1999999 1999999 1999999 1999999 1999999 1999999 0 5965 1999999 1999999 1999999 1999999 1999999 1999999 1999999 1999999 5933 1999999 1999999 1999999 
1999999 1999999 1999999 1999999 1999999 5955 1999999 1999999 1999999 1999999 1999999 1999999 1999999 1999999 5964 0 1999999 1999999 1999999 1999999 1999999 1999999 1999999 1999999 5965 5930 1999999 1999999 1999999 1999999 
1999999 1999999 1999999 1999999 1999999 1999999 1999999 1999999 5949 5973 1999999 1999999 1999999 1999999 1999999 1999999 1999999 1999999 0 5936 1999999 1999999 1999999 1999999 1999999 1999999 1999999 5939 1999999 1999999 
1999999 1999999 1999999 1999999 1999999 1999999 5948 5949 1999999 1999999 1999999 1999999 1999999 1999999 1999999 1999999 5965 0 1999999 1999999 1999999 1999999 1999999 1999999 1999999 1999999 5966 1999999 1999999 1999999 
1999999 1999999 1999999 1999999 1999999 1999999 1999999 1999999 1999999 1999999 5973 5957 1999999 1999999 1999999 1999999 1999999 1999999 1999999 1999999 0 5968 1999999 1999999 1999999 1999999 1999999 1999999 5970 1999999 
1999999 1999999 1999999 1999999 1999999 1999999 1999999 1999999 5951 5973 1999999 1999999 1999999 1999999 1999999 1999999 1999999 1999999 5936 0 1999999 1999999 1999999 1999999 1999999 1999999 1999999 5941 1999999 1999999 
1999999 1999999 1999999 1999999 1999999 1999999 1999999 1999999 1999999 1999999 1999999 1999999 5947 5963 1999999 1999999 1999999 1999999 1999999 1999999 1999999 1999999 0 5968 1999999 1999999 1999999 1999999 1999999 5937 
1999999 1999999 1999999 1999999 1999999 1999999 1999999 1999999 1999999 1999999 5931 5947 1999999 1999999 1999999 1999999 1999999 1999999 1999999 1999999 5968 0 1999999 1999999 1999999 1999999 1999999 1999999 5928 1999999 
1999999 1999999 1999999 1999999 1999999 5952 1999999 1999999 1999999 1999999 1999999 1999999 1999999 1999999 5943 5965 1999999 1999999 1999999 1999999 1999999 1999999 1999999 1999999 0 5963 1999999 1999999 1999999 1999999 
1999999 1999999 1999999 1999999 1999999 1999999 1999999 1999999 1999999 1999999 1999999 1999999 5953 5943 1999999 1999999 1999999 1999999 1999999 1999999 1999999 1999999 5968 0 1999999 1999999 1999999 1999999 1999999 5961 
0 0 0 0 0 1999999 1999999 1999999 1999999 1999999 1999999 1999999 1999999 1999999 1999999 1999999 1999999 1999999 1999999 1999999 1999999 1999999 1999999 1999999 1999999 0 1999999 1999999 1999999 1999999 
0 0 0 0 0 1999999 1999999 1999999 1999999 1999999 1999999 1999999 1999999 1999999 1999999 1999999 1999999 1999999 1999999 1999999 1999999 1999999 1999999 1999999 1999999 1999999 0 1999999 1999999 1999999 
0 0 0 0 0 1999999 1999999 1999999 1999999 1999999 1999999 1999999 1999999 1999999 1999999 1999999 1999999 1999999 1999999 1999999 1999999 1999999 1999999 1999999 1999999 1999999 1999999 0 1999999 1999999 
0 0 0 0 0 1999999 1999999 1999999 1999999 1999999 1999999 1999999 1999999 1999999 1999999 1999999 1999999 1999999 1999999 1999999 1999999 1999999 1999999 1999999 1999999 1999999 1999999 1999999 0 1999999 
0 0 0 0 0 1999999 1999999 1999999 1999999 1999999 1999999 1999999 1999999 1999999 1999999 1999999 1999999 1999999 1999999 1999999 1999999 1999999 1999999 1999999 1999999 1999999 1999999 1999999 1999999 0 
