runtime_files/mcpf.tour
NAME : mcpfd.-54698.tour
COMMENT : Length = -54698
COMMENT : Found by LKH [Keld Helsgaun] Sat Aug 24 18:44:37 2024
TYPE : TOUR
DIMENSION : 30
TOUR_SECTION
1
26
5
24
25
14
15
23
22
30
2
17
16
7
6
18
9
8
19
27
3
20
21
28
4
11
10
12
13
29
-1
EOF
